NAME: cum160.tsp
TYPE: TSP
COMMENT: User-generated TSP file
DIMENSION: 800
EDGE_WEIGHT_TYPE: EUC_2D
NODE_COORD_SECTION
1 798.0 357.0
2 149.0 714.0
3 192.0 646.0
4 299.0 798.0
5 291.0 177.0
6 588.0 29.0
7 159.0 474.0
8 87.0 491.0
9 580.0 301.0
10 344.0 645.0
11 80.0 128.0
12 632.0 511.0
13 58.0 589.0
14 116.0 579.0
15 761.0 187.0
16 489.0 395.0
17 248.0 693.0
18 405.0 208.0
19 165.0 321.0
20 256.0 789.0
21 125.0 540.0
22 140.0 782.0
23 397.0 117.0
24 700.0 618.0
25 126.0 329.0
26 661.0 741.0
27 717.0 488.0
28 599.0 575.0
29 545.0 55.0
30 262.0 786.0
31 76.0 761.0
32 45.0 534.0
33 328.0 329.0
34 625.0 396.0
35 384.0 344.0
36 254.0 20.0
37 530.0 223.0
38 194.0 448.0
39 534.0 395.0
40 799.0 560.0
41 603.0 570.0
42 565.0 552.0
43 255.0 564.0
44 269.0 325.0
45 188.0 114.0
46 180.0 344.0
47 217.0 491.0
48 621.0 515.0
49 39.0 367.0
50 110.0 411.0
51 222.0 570.0
52 492.0 520.0
53 334.0 534.0
54 465.0 417.0
55 649.0 776.0
56 564.0 495.0
57 297.0 767.0
58 548.0 124.0
59 332.0 176.0
60 204.0 612.0
61 402.0 638.0
62 131.0 511.0
63 672.0 772.0
64 438.0 297.0
65 623.0 601.0
66 317.0 30.0
67 706.0 415.0
68 544.0 704.0
69 595.0 498.0
70 646.0 793.0
71 313.0 506.0
72 542.0 350.0
73 514.0 398.0
74 233.0 381.0
75 279.0 645.0
76 704.0 62.0
77 202.0 317.0
78 372.0 799.0
79 106.0 196.0
80 792.0 657.0
81 461.0 23.0
82 342.0 756.0
83 230.0 242.0
84 458.0 361.0
85 475.0 241.0
86 624.0 731.0
87 629.0 699.0
88 118.0 759.0
89 616.0 737.0
90 228.0 245.0
91 695.0 779.0
92 51.0 335.0
93 280.0 267.0
94 497.0 523.0
95 540.0 565.0
96 582.0 102.0
97 1.0 451.0
98 248.0 578.0
99 176.0 319.0
100 618.0 435.0
101 653.0 650.0
102 112.0 120.0
103 612.0 43.0
104 476.0 340.0
105 106.0 2.0
106 235.0 222.0
107 288.0 249.0
108 318.0 80.0
109 94.0 377.0
110 192.0 157.0
111 498.0 463.0
112 666.0 162.0
113 500.0 718.0
114 50.0 788.0
115 606.0 663.0
116 602.0 273.0
117 164.0 128.0
118 145.0 69.0
119 132.0 302.0
120 575.0 404.0
121 242.0 436.0
122 301.0 275.0
123 307.0 18.0
124 780.0 325.0
125 445.0 128.0
126 136.0 3.0
127 461.0 140.0
128 484.0 378.0
129 480.0 622.0
130 341.0 161.0
131 561.0 730.0
132 362.0 591.0
133 116.0 13.0
134 335.0 208.0
135 83.0 682.0
136 606.0 651.0
137 134.0 366.0
138 456.0 256.0
139 770.0 497.0
140 571.0 351.0
141 134.0 469.0
142 126.0 562.0
143 281.0 343.0
144 754.0 769.0
145 441.0 196.0
146 497.0 548.0
147 663.0 107.0
148 695.0 638.0
149 737.0 682.0
150 539.0 628.0
151 280.0 255.0
152 364.0 368.0
153 79.0 353.0
154 174.0 210.0
155 225.0 84.0
156 290.0 349.0
157 502.0 459.0
158 736.0 51.0
159 317.0 71.0
160 413.0 259.0
161 475.0 446.0
162 235.0 170.0
163 636.0 286.0
164 493.0 798.0
165 5.0 2.0
166 418.0 715.0
167 563.0 326.0
168 253.0 221.0
169 139.0 439.0
170 519.0 69.0
171 290.0 600.0
172 616.0 458.0
173 234.0 55.0
174 762.0 663.0
175 562.0 56.0
176 234.0 151.0
177 90.0 737.0
178 347.0 118.0
179 316.0 442.0
180 416.0 779.0
181 584.0 91.0
182 75.0 107.0
183 699.0 565.0
184 429.0 677.0
185 783.0 393.0
186 514.0 454.0
187 222.0 797.0
188 78.0 688.0
189 531.0 38.0
190 361.0 247.0
191 343.0 209.0
192 666.0 60.0
193 187.0 96.0
194 29.0 750.0
195 161.0 42.0
196 738.0 400.0
197 111.0 722.0
198 157.0 69.0
199 549.0 473.0
200 638.0 753.0
201 41.0 415.0
202 793.0 442.0
203 455.0 414.0
204 435.0 790.0
205 72.0 250.0
206 80.0 303.0
207 673.0 481.0
208 201.0 642.0
209 796.0 632.0
210 239.0 75.0
211 531.0 368.0
212 7.0 288.0
213 137.0 11.0
214 7.0 200.0
215 598.0 686.0
216 776.0 397.0
217 285.0 535.0
218 421.0 593.0
219 381.0 404.0
220 444.0 229.0
221 11.0 235.0
222 55.0 695.0
223 350.0 479.0
224 443.0 149.0
225 321.0 690.0
226 546.0 613.0
227 568.0 196.0
228 671.0 513.0
229 491.0 657.0
230 718.0 763.0
231 266.0 773.0
232 556.0 167.0
233 693.0 265.0
234 183.0 467.0
235 433.0 303.0
236 6.0 186.0
237 568.0 405.0
238 238.0 312.0
239 9.0 49.0
240 717.0 321.0
241 572.0 171.0
242 288.0 352.0
243 540.0 609.0
244 126.0 439.0
245 709.0 246.0
246 77.0 229.0
247 547.0 457.0
248 612.0 294.0
249 775.0 507.0
250 659.0 299.0
251 542.0 734.0
252 161.0 104.0
253 529.0 361.0
254 285.0 295.0
255 73.0 569.0
256 497.0 290.0
257 613.0 491.0
258 54.0 675.0
259 766.0 721.0
260 759.0 98.0
261 499.0 651.0
262 12.0 185.0
263 555.0 293.0
264 720.0 10.0
265 258.0 322.0
266 197.0 396.0
267 85.0 204.0
268 793.0 687.0
269 74.0 793.0
270 412.0 52.0
271 245.0 390.0
272 195.0 800.0
273 569.0 248.0
274 395.0 518.0
275 686.0 343.0
276 290.0 477.0
277 738.0 660.0
278 571.0 127.0
279 432.0 578.0
280 685.0 328.0
281 394.0 307.0
282 605.0 32.0
283 765.0 387.0
284 211.0 680.0
285 345.0 537.0
286 412.0 287.0
287 223.0 236.0
288 185.0 250.0
289 326.0 458.0
290 410.0 475.0
291 594.0 97.0
292 406.0 575.0
293 499.0 721.0
294 518.0 469.0
295 521.0 573.0
296 217.0 180.0
297 61.0 77.0
298 453.0 789.0
299 138.0 239.0
300 621.0 461.0
301 268.0 226.0
302 42.0 165.0
303 612.0 74.0
304 602.0 82.0
305 310.0 508.0
306 566.0 102.0
307 94.0 260.0
308 293.0 437.0
309 647.0 56.0
310 646.0 651.0
311 607.0 527.0
312 700.0 473.0
313 609.0 68.0
314 474.0 249.0
315 790.0 451.0
316 542.0 781.0
317 153.0 103.0
318 756.0 688.0
319 469.0 281.0
320 641.0 95.0
321 700.0 480.0
322 645.0 772.0
323 349.0 185.0
324 439.0 481.0
325 422.0 630.0
326 343.0 465.0
327 493.0 573.0
328 425.0 792.0
329 375.0 167.0
330 170.0 251.0
331 692.0 779.0
332 163.0 304.0
333 221.0 455.0
334 600.0 657.0
335 800.0 90.0
336 460.0 579.0
337 722.0 194.0
338 639.0 799.0
339 556.0 621.0
340 719.0 534.0
341 644.0 439.0
342 603.0 315.0
343 39.0 496.0
344 681.0 236.0
345 514.0 621.0
346 623.0 622.0
347 228.0 470.0
348 533.0 283.0
349 325.0 769.0
350 289.0 13.0
351 133.0 648.0
352 612.0 387.0
353 385.0 76.0
354 563.0 378.0
355 590.0 744.0
356 544.0 360.0
357 184.0 257.0
358 208.0 199.0
359 35.0 151.0
360 209.0 442.0
361 412.0 602.0
362 510.0 8.0
363 629.0 293.0
364 502.0 697.0
365 375.0 83.0
366 120.0 333.0
367 129.0 589.0
368 533.0 757.0
369 635.0 176.0
370 567.0 404.0
371 576.0 339.0
372 136.0 316.0
373 76.0 428.0
374 590.0 72.0
375 386.0 97.0
376 180.0 281.0
377 431.0 280.0
378 562.0 53.0
379 338.0 97.0
380 127.0 515.0
381 441.0 53.0
382 5.0 545.0
383 464.0 550.0
384 2.0 166.0
385 470.0 303.0
386 353.0 479.0
387 186.0 162.0
388 550.0 127.0
389 171.0 247.0
390 10.0 252.0
391 370.0 572.0
392 598.0 271.0
393 750.0 663.0
394 294.0 195.0
395 546.0 151.0
396 99.0 767.0
397 521.0 64.0
398 655.0 592.0
399 620.0 30.0
400 449.0 372.0
401 149.0 573.0
402 439.0 357.0
403 443.0 98.0
404 564.0 90.0
405 32.0 439.0
406 530.0 491.0
407 28.0 788.0
408 496.0 131.0
409 426.0 591.0
410 263.0 737.0
411 386.0 59.0
412 184.0 776.0
413 382.0 302.0
414 723.0 110.0
415 396.0 333.0
416 178.0 95.0
417 226.0 627.0
418 567.0 394.0
419 659.0 188.0
420 122.0 613.0
421 183.0 607.0
422 154.0 49.0
423 16.0 32.0
424 235.0 230.0
425 612.0 345.0
426 715.0 342.0
427 155.0 398.0
428 665.0 217.0
429 60.0 661.0
430 145.0 205.0
431 295.0 365.0
432 276.0 388.0
433 689.0 227.0
434 453.0 699.0
435 377.0 589.0
436 800.0 32.0
437 324.0 184.0
438 612.0 717.0
439 282.0 194.0
440 289.0 374.0
441 674.0 20.0
442 302.0 753.0
443 226.0 580.0
444 716.0 415.0
445 327.0 434.0
446 481.0 653.0
447 713.0 495.0
448 599.0 712.0
449 97.0 287.0
450 83.0 670.0
451 428.0 576.0
452 38.0 701.0
453 407.0 757.0
454 113.0 273.0
455 376.0 565.0
456 365.0 605.0
457 519.0 357.0
458 557.0 393.0
459 788.0 795.0
460 433.0 409.0
461 184.0 775.0
462 590.0 658.0
463 29.0 429.0
464 420.0 476.0
465 491.0 598.0
466 379.0 89.0
467 515.0 586.0
468 725.0 8.0
469 629.0 469.0
470 503.0 39.0
471 700.0 649.0
472 470.0 748.0
473 793.0 146.0
474 547.0 650.0
475 457.0 715.0
476 69.0 140.0
477 124.0 490.0
478 767.0 306.0
479 282.0 273.0
480 86.0 342.0
481 661.0 555.0
482 144.0 429.0
483 346.0 14.0
484 170.0 561.0
485 286.0 386.0
486 777.0 556.0
487 282.0 287.0
488 250.0 222.0
489 595.0 774.0
490 209.0 572.0
491 654.0 621.0
492 111.0 476.0
493 435.0 217.0
494 353.0 315.0
495 708.0 725.0
496 290.0 306.0
497 528.0 126.0
498 629.0 666.0
499 46.0 415.0
500 132.0 379.0
501 134.0 365.0
502 737.0 252.0
503 302.0 307.0
504 294.0 581.0
505 788.0 449.0
506 469.0 521.0
507 542.0 4.0
508 93.0 475.0
509 650.0 353.0
510 127.0 621.0
511 271.0 453.0
512 548.0 751.0
513 663.0 447.0
514 92.0 250.0
515 634.0 581.0
516 199.0 664.0
517 484.0 203.0
518 761.0 697.0
519 703.0 533.0
520 415.0 120.0
521 429.0 286.0
522 44.0 450.0
523 21.0 493.0
524 192.0 621.0
525 68.0 762.0
526 628.0 195.0
527 662.0 744.0
528 21.0 47.0
529 272.0 724.0
530 600.0 653.0
531 98.0 690.0
532 631.0 280.0
533 791.0 566.0
534 475.0 101.0
535 10.0 528.0
536 161.0 265.0
537 90.0 13.0
538 402.0 665.0
539 706.0 76.0
540 433.0 561.0
541 367.0 128.0
542 604.0 551.0
543 799.0 652.0
544 33.0 376.0
545 394.0 184.0
546 792.0 142.0
547 271.0 602.0
548 309.0 611.0
549 459.0 569.0
550 258.0 688.0
551 436.0 305.0
552 92.0 770.0
553 737.0 494.0
554 220.0 172.0
555 384.0 85.0
556 748.0 437.0
557 528.0 290.0
558 37.0 354.0
559 637.0 732.0
560 317.0 720.0
561 102.0 552.0
562 138.0 259.0
563 190.0 381.0
564 68.0 222.0
565 227.0 653.0
566 510.0 379.0
567 239.0 676.0
568 747.0 103.0
569 564.0 256.0
570 642.0 40.0
571 181.0 74.0
572 122.0 362.0
573 546.0 651.0
574 185.0 446.0
575 403.0 781.0
576 420.0 720.0
577 346.0 691.0
578 104.0 570.0
579 799.0 700.0
580 90.0 427.0
581 40.0 204.0
582 674.0 245.0
583 567.0 255.0
584 717.0 242.0
585 238.0 573.0
586 663.0 366.0
587 345.0 445.0
588 153.0 395.0
589 343.0 93.0
590 548.0 511.0
591 307.0 509.0
592 313.0 390.0
593 774.0 79.0
594 557.0 353.0
595 358.0 456.0
596 752.0 75.0
597 607.0 322.0
598 324.0 19.0
599 705.0 244.0
600 743.0 108.0
601 81.0 786.0
602 740.0 542.0
603 151.0 189.0
604 60.0 369.0
605 321.0 556.0
606 697.0 737.0
607 348.0 367.0
608 538.0 392.0
609 510.0 483.0
610 35.0 113.0
611 90.0 7.0
612 546.0 718.0
613 97.0 12.0
614 793.0 417.0
615 761.0 277.0
616 606.0 181.0
617 267.0 657.0
618 9.0 312.0
619 69.0 469.0
620 196.0 212.0
621 478.0 690.0
622 758.0 39.0
623 438.0 233.0
624 312.0 647.0
625 175.0 160.0
626 787.0 665.0
627 575.0 522.0
628 622.0 6.0
629 661.0 722.0
630 676.0 291.0
631 590.0 137.0
632 612.0 353.0
633 465.0 626.0
634 13.0 180.0
635 13.0 78.0
636 214.0 392.0
637 337.0 475.0
638 507.0 577.0
639 373.0 320.0
640 253.0 777.0
641 284.0 360.0
642 221.0 36.0
643 309.0 243.0
644 171.0 350.0
645 683.0 91.0
646 448.0 507.0
647 100.0 137.0
648 692.0 564.0
649 489.0 527.0
650 4.0 624.0
651 35.0 754.0
652 40.0 444.0
653 627.0 122.0
654 155.0 348.0
655 369.0 799.0
656 632.0 786.0
657 710.0 17.0
658 385.0 203.0
659 578.0 472.0
660 49.0 163.0
661 549.0 766.0
662 508.0 570.0
663 97.0 407.0
664 110.0 727.0
665 460.0 366.0
666 575.0 686.0
667 588.0 408.0
668 193.0 390.0
669 633.0 510.0
670 132.0 97.0
671 272.0 518.0
672 391.0 796.0
673 786.0 401.0
674 552.0 492.0
675 739.0 729.0
676 502.0 469.0
677 398.0 440.0
678 712.0 57.0
679 229.0 554.0
680 481.0 616.0
681 254.0 632.0
682 105.0 471.0
683 307.0 460.0
684 279.0 659.0
685 169.0 625.0
686 221.0 21.0
687 454.0 638.0
688 304.0 82.0
689 582.0 536.0
690 529.0 168.0
691 172.0 367.0
692 418.0 296.0
693 200.0 751.0
694 619.0 314.0
695 698.0 503.0
696 217.0 333.0
697 492.0 64.0
698 95.0 67.0
699 613.0 697.0
700 569.0 786.0
701 428.0 577.0
702 512.0 437.0
703 775.0 504.0
704 364.0 522.0
705 502.0 785.0
706 600.0 627.0
707 15.0 170.0
708 663.0 27.0
709 465.0 206.0
710 353.0 83.0
711 335.0 182.0
712 442.0 421.0
713 705.0 549.0
714 299.0 548.0
715 497.0 204.0
716 379.0 124.0
717 315.0 81.0
718 1.0 585.0
719 686.0 272.0
720 96.0 362.0
721 555.0 586.0
722 655.0 150.0
723 539.0 574.0
724 315.0 581.0
725 725.0 483.0
726 138.0 512.0
727 345.0 751.0
728 42.0 209.0
729 597.0 651.0
730 644.0 304.0
731 765.0 509.0
732 482.0 37.0
733 367.0 424.0
734 514.0 614.0
735 117.0 204.0
736 98.0 133.0
737 188.0 462.0
738 618.0 360.0
739 650.0 263.0
740 550.0 382.0
741 103.0 302.0
742 721.0 416.0
743 377.0 623.0
744 489.0 406.0
745 69.0 662.0
746 699.0 575.0
747 523.0 796.0
748 454.0 65.0
749 235.0 647.0
750 459.0 699.0
751 551.0 715.0
752 750.0 38.0
753 521.0 690.0
754 744.0 214.0
755 745.0 314.0
756 165.0 279.0
757 281.0 405.0
758 297.0 686.0
759 14.0 240.0
760 441.0 762.0
761 45.0 109.0
762 691.0 596.0
763 734.0 662.0
764 166.0 694.0
765 761.0 580.0
766 689.0 288.0
767 199.0 453.0
768 620.0 412.0
769 229.0 708.0
770 753.0 379.0
771 30.0 281.0
772 497.0 68.0
773 165.0 352.0
774 62.0 697.0
775 458.0 476.0
776 433.0 468.0
777 513.0 658.0
778 784.0 445.0
779 187.0 77.0
780 344.0 158.0
781 592.0 26.0
782 452.0 746.0
783 114.0 75.0
784 617.0 608.0
785 134.0 45.0
786 379.0 439.0
787 359.0 517.0
788 607.0 181.0
789 412.0 447.0
790 562.0 654.0
791 754.0 613.0
792 180.0 138.0
793 608.0 566.0
794 154.0 761.0
795 745.0 749.0
796 626.0 42.0
797 532.0 167.0
798 743.0 72.0
799 760.0 153.0
800 150.0 54.0
EOF

